NAME: rue_25_5
TYPE: TSP
DIMENSION: 25
EDGE_WEIGHT_TYPE: EUC_2D
NODE_COORD_SECTION
1 36 7
2 34 10
3 19 28
4 11 39
5 40 35
6 5 31
7 34 5
8 29 24
9 28 12
10 28 30
11 34 29
12 31 37
13 22 12
14 29 38
15 2 5
16 33 3
17 11 29
18 2 36
19 33 35
20 18 31
21 36 11
22 2 30
23 17 15
24 28 2
25 12 32

